p tw 260 3901 7 
1 8 
1 41 
2 9 
2 10 
2 42 
3 7 
3 10 
3 131 
4 8 
4 9 
4 132 
5 7 
5 9 
5 211 
6 8 
6 10 
6 212 
11 17 
11 18 
11 43 
12 19 
12 20 
12 44 
13 17 
13 20 
13 171 
14 18 
14 19 
14 172 
15 17 
15 19 
15 181 
16 18 
16 20 
16 182 
21 27 
21 28 
21 133 
22 29 
22 30 
22 134 
23 27 
23 30 
23 173 
24 28 
24 29 
24 174 
25 27 
25 29 
25 183 
26 28 
26 30 
26 184 
31 37 
31 38 
31 81 
32 39 
32 40 
32 82 
33 37 
33 40 
33 135 
34 38 
34 39 
34 136 
35 37 
35 39 
35 231 
36 38 
36 40 
36 232 
41 47 
41 48 
42 49 
42 50 
43 47 
43 50 
44 48 
44 49 
45 47 
45 49 
45 91 
46 48 
46 50 
46 92 
51 57 
51 58 
51 83 
52 59 
52 60 
52 84 
53 57 
53 60 
53 141 
54 58 
54 59 
54 142 
55 57 
55 59 
55 201 
56 58 
56 60 
56 202 
61 67 
61 68 
61 121 
62 69 
62 70 
62 122 
63 67 
63 70 
63 191 
64 68 
64 69 
64 192 
65 67 
65 69 
65 241 
66 68 
66 70 
66 242 
71 77 
71 78 
71 193 
72 79 
72 80 
72 194 
73 77 
73 80 
73 203 
74 78 
74 79 
74 204 
75 77 
75 79 
75 221 
76 78 
76 80 
76 222 
81 87 
81 88 
82 89 
82 90 
83 87 
83 90 
84 88 
84 89 
85 87 
85 89 
85 101 
86 88 
86 90 
86 102 
91 97 
91 98 
92 99 
92 100 
93 97 
93 100 
93 123 
94 98 
94 99 
94 124 
95 97 
95 99 
95 213 
96 98 
96 100 
96 214 
101 107 
101 108 
102 109 
102 110 
103 107 
103 110 
103 111 
104 108 
104 109 
104 112 
105 107 
105 109 
105 143 
106 108 
106 110 
106 144 
111 117 
111 118 
112 119 
112 120 
113 117 
113 120 
113 145 
114 118 
114 119 
114 146 
115 117 
115 119 
115 151 
116 118 
116 120 
116 152 
121 127 
121 128 
122 129 
122 130 
123 127 
123 130 
124 128 
124 129 
125 127 
125 129 
125 153 
126 128 
126 130 
126 154 
131 137 
131 138 
132 139 
132 140 
133 137 
133 140 
134 138 
134 139 
135 137 
135 139 
136 138 
136 140 
141 147 
141 148 
142 149 
142 150 
143 147 
143 150 
144 148 
144 149 
145 147 
145 149 
146 148 
146 150 
151 157 
151 158 
152 159 
152 160 
153 157 
153 160 
154 158 
154 159 
155 157 
155 159 
155 233 
156 158 
156 160 
156 234 
161 167 
161 168 
161 205 
162 169 
162 170 
162 206 
163 167 
163 170 
163 243 
164 168 
164 169 
164 244 
165 167 
165 169 
165 251 
166 168 
166 170 
166 252 
171 177 
171 178 
172 179 
172 180 
173 177 
173 180 
174 178 
174 179 
175 177 
175 179 
175 245 
176 178 
176 180 
176 246 
181 187 
181 188 
182 189 
182 190 
183 187 
183 190 
184 188 
184 189 
185 187 
185 189 
185 253 
186 188 
186 190 
186 254 
191 197 
191 198 
192 199 
192 200 
193 197 
193 200 
194 198 
194 199 
195 197 
195 199 
195 223 
196 198 
196 200 
196 224 
201 207 
201 208 
202 209 
202 210 
203 207 
203 210 
204 208 
204 209 
205 207 
205 209 
206 208 
206 210 
211 217 
211 218 
212 219 
212 220 
213 217 
213 220 
214 218 
214 219 
215 217 
215 219 
215 235 
216 218 
216 220 
216 236 
221 227 
221 228 
222 229 
222 230 
223 227 
223 230 
224 228 
224 229 
225 227 
225 229 
225 255 
226 228 
226 230 
226 256 
231 237 
231 238 
232 239 
232 240 
233 237 
233 240 
234 238 
234 239 
235 237 
235 239 
236 238 
236 240 
241 247 
241 248 
242 249 
242 250 
243 247 
243 250 
244 248 
244 249 
245 247 
245 249 
246 248 
246 250 
251 257 
251 258 
252 259 
252 260 
253 257 
253 260 
254 258 
254 259 
255 257 
255 259 
256 258 
256 260 
